nNurses = 160;
nHours = 36;
minHours = 3;
maxHours = 19;
maxConsec = 16;
maxPresence = 9;
demand = [37, 34, 39, 39, 38, 35, 32, 33, 31, 30, 28, 26, 27, 24, 20, 16, 18, 16, 21, 16, 16, 18, 18, 22, 22, 26, 24, 29, 29, 28, 30, 26, 24, 26, 27, 24];
